experiment/zaligvinder/models/redos/small/instance710.smt2
;test regex <a href=([^#]+)>([^<]+)</a>\n\s+\(<a (?:title=MD5 hash\n\s+)href=[^?]+\?:action=show_md5&ampdigest=([0-9a-f]{32})>md5</a>\)
(declare-const X String)
(assert (str.in_re X (re.++ (str.to_re "<") (re.++ (str.to_re "a") (re.++ (str.to_re " ") (re.++ (str.to_re "h") (re.++ (str.to_re "r") (re.++ (str.to_re "e") (re.++ (str.to_re "f") (re.++ (str.to_re "=") (re.++ (re.+ (re.diff re.allchar (str.to_re "#"))) (re.++ (str.to_re ">") (re.++ (re.+ (re.diff re.allchar (str.to_re "<"))) (re.++ (str.to_re "<") (re.++ (str.to_re "/") (re.++ (str.to_re "a") (re.++ (str.to_re ">") (re.++ (str.to_re "\u{0a}") (re.++ (re.+ (re.union (str.to_re " ") (re.union (str.to_re "\u{0b}") (re.union (str.to_re "\u{0a}") (re.union (str.to_re "\u{0d}") (re.union (str.to_re "\u{09}") (str.to_re "\u{0c}"))))))) (re.++ (str.to_re "(") (re.++ (str.to_re "<") (re.++ (str.to_re "a") (re.++ (str.to_re " ") (re.++ (re.++ (str.to_re "t") (re.++ (str.to_re "i") (re.++ (str.to_re "t") (re.++ (str.to_re "l") (re.++ (str.to_re "e") (re.++ (str.to_re "=") (re.++ (str.to_re "M") (re.++ (str.to_re "D") (re.++ (str.to_re "5") (re.++ (str.to_re " ") (re.++ (str.to_re "h") (re.++ (str.to_re "a") (re.++ (str.to_re "s") (re.++ (str.to_re "h") (re.++ (str.to_re "\u{0a}") (re.+ (re.union (str.to_re " ") (re.union (str.to_re "\u{0b}") (re.union (str.to_re "\u{0a}") (re.union (str.to_re "\u{0d}") (re.union (str.to_re "\u{09}") (str.to_re "\u{0c}")))))))))))))))))))))) (re.++ (str.to_re "h") (re.++ (str.to_re "r") (re.++ (str.to_re "e") (re.++ (str.to_re "f") (re.++ (str.to_re "=") (re.++ (re.+ (re.diff re.allchar (str.to_re "?"))) (re.++ (str.to_re "?") (re.++ (str.to_re ":") (re.++ (str.to_re "a") (re.++ (str.to_re "c") (re.++ (str.to_re "t") (re.++ (str.to_re "i") (re.++ (str.to_re "o") (re.++ (str.to_re "n") (re.++ (str.to_re "=") (re.++ (str.to_re "s") (re.++ (str.to_re "h") (re.++ (str.to_re "o") (re.++ (str.to_re "w") (re.++ (str.to_re "_") (re.++ (str.to_re "m") (re.++ (str.to_re "d") (re.++ (str.to_re "5") (re.++ (str.to_re "&") (re.++ (str.to_re "a") (re.++ (str.to_re "m") (re.++ (str.to_re "p") (re.++ (str.to_re "d") (re.++ (str.to_re "i") (re.++ (str.to_re "g") (re.++ (str.to_re "e") (re.++ (str.to_re "s") (re.++ (str.to_re "t") (re.++ (str.to_re "=") (re.++ ((_ re.loop 32 32) (re.union (re.range "0" "9") (re.range "a" "f"))) (re.++ (str.to_re ">") (re.++ (str.to_re "m") (re.++ (str.to_re "d") (re.++ (str.to_re "5") (re.++ (str.to_re "<") (re.++ (str.to_re "/") (re.++ (str.to_re "a") (re.++ (str.to_re ">") (str.to_re ")"))))))))))))))))))))))))))))))))))))))))))))))))))))))))))))))))))))
; sanitize danger characters:  < > ' " &
(assert (not (str.in_re X (re.++ re.all (re.union (str.to_re "\u{3c}") (str.to_re "\u{3e}") (str.to_re "\u{27}") (str.to_re "\u{22}") (str.to_re "\u{26}")) re.all))))
(assert (< 20 (str.len X)))
(check-sat)
(get-model)